<?xml version = "1.0" encoding="UTF-8" standalone="yes"?>
<CPLEXSolution version="1.2">
 <header
   problemName="/home/piotrek/Kodzenie/SolversComparision/problems/israelcplex.lp"
   objectiveValue="-896644.821863046"
   solutionTypeValue="1"
   solutionTypeString="basic"
   solutionStatusValue="1"
   solutionStatusString="optimal"
   solutionMethodString="dual"
   primalFeasible="1"
   dualFeasible="1"
   simplexIterations="122"
   writeLevel="1"/>
 <quality
   epRHS="1e-06"
   epOpt="1e-06"
   maxPrimalInfeas="0"
   maxDualInfeas="0"
   maxPrimalResidual="3.19991144692722e-10"
   maxDualResidual="1.60982338570648e-13"
   maxX="10371.9383734463"
   maxPi="365.451484805599"
   maxSlack="896645.951863046"
   maxRedCost="3006"
   kappa="2940.51762060836"/>
 <linearConstraints>
  <constraint name="B1" index="0" status="LL" slack="0" dual="-26.8138566087197"/>
  <constraint name="B2" index="1" status="BS" slack="967.10037841648" dual="0"/>
  <constraint name="B3" index="2" status="BS" slack="33.8591101228533" dual="0"/>
  <constraint name="B4" index="3" status="BS" slack="39.2281465134988" dual="0"/>
  <constraint name="B5" index="4" status="BS" slack="234" dual="0"/>
  <constraint name="B6" index="5" status="LL" slack="0" dual="-26.8138566087195"/>
  <constraint name="B7" index="6" status="LL" slack="0" dual="-14.3984786138801"/>
  <constraint name="B8" index="7" status="LL" slack="0" dual="-23.3132901409192"/>
  <constraint name="B9" index="8" status="LL" slack="0" dual="-15.7259796683698"/>
  <constraint name="B10" index="9" status="BS" slack="200" dual="0"/>
  <constraint name="B11" index="10" status="LL" slack="0" dual="-11.9714132114247"/>
  <constraint name="B12" index="11" status="LL" slack="0" dual="-19.1341351491753"/>
  <constraint name="B13" index="12" status="BS" slack="848.385187433165" dual="0"/>
  <constraint name="B14" index="13" status="BS" slack="568.385187433165" dual="0"/>
  <constraint name="B15" index="14" status="LL" slack="0" dual="-274.276378634912"/>
  <constraint name="B16" index="15" status="BS" slack="216.158123984587" dual="0"/>
  <constraint name="B17" index="16" status="LL" slack="0" dual="-52.2656171927238"/>
  <constraint name="B18" index="17" status="BS" slack="409.386105907985" dual="0"/>
  <constraint name="B19" index="18" status="LL" slack="0" dual="-26.1731729701649"/>
  <constraint name="B20" index="19" status="BS" slack="300" dual="0"/>
  <constraint name="B21" index="20" status="BS" slack="24.621432573543" dual="0"/>
  <constraint name="B22" index="21" status="LL" slack="0" dual="-26.9612537931716"/>
  <constraint name="B23" index="22" status="BS" slack="67.7160744301572" dual="0"/>
  <constraint name="B24" index="23" status="LL" slack="0" dual="-232.507374425913"/>
  <constraint name="B25" index="24" status="BS" slack="30" dual="0"/>
  <constraint name="B26" index="25" status="BS" slack="50" dual="0"/>
  <constraint name="B27" index="26" status="BS" slack="30" dual="0"/>
  <constraint name="B28" index="27" status="LL" slack="0" dual="-11"/>
  <constraint name="B29" index="28" status="LL" slack="0" dual="-0"/>
  <constraint name="B30" index="29" status="BS" slack="43.7214853162698" dual="0"/>
  <constraint name="B31" index="30" status="BS" slack="781.165248360763" dual="0"/>
  <constraint name="B32" index="31" status="BS" slack="16.2524546224279" dual="0"/>
  <constraint name="B33" index="32" status="BS" slack="8.8382195930238" dual="0"/>
  <constraint name="B34" index="33" status="BS" slack="104.929792983361" dual="0"/>
  <constraint name="B35" index="34" status="LL" slack="0" dual="-0"/>
  <constraint name="B36" index="35" status="BS" slack="58.0360595028002" dual="0"/>
  <constraint name="B37" index="36" status="LL" slack="0" dual="-0"/>
  <constraint name="B38" index="37" status="LL" slack="0" dual="-0"/>
  <constraint name="B39" index="38" status="BS" slack="130.367763169274" dual="0"/>
  <constraint name="B40" index="39" status="BS" slack="176.655076709233" dual="0"/>
  <constraint name="B41" index="40" status="BS" slack="98.7791339248233" dual="0"/>
  <constraint name="B42" index="41" status="BS" slack="14.8919138413509" dual="0"/>
  <constraint name="B43" index="42" status="BS" slack="69.2280030778377" dual="0"/>
  <constraint name="B44" index="43" status="LL" slack="0" dual="-365.451484805599"/>
  <constraint name="B45" index="44" status="BS" slack="210.970876447251" dual="0"/>
  <constraint name="B46" index="45" status="BS" slack="215.565663753612" dual="0"/>
  <constraint name="B47" index="46" status="BS" slack="268.679844248576" dual="0"/>
  <constraint name="B48" index="47" status="LL" slack="0" dual="-35.4961527649635"/>
  <constraint name="B49" index="48" status="BS" slack="151.037409834938" dual="0"/>
  <constraint name="B50" index="49" status="LL" slack="0" dual="-111.391878626205"/>
  <constraint name="B51" index="50" status="LL" slack="0" dual="-161.836712539795"/>
  <constraint name="B52" index="51" status="BS" slack="95.3677631692744" dual="0"/>
  <constraint name="B53" index="52" status="BS" slack="161.655076709233" dual="0"/>
  <constraint name="B54" index="53" status="LL" slack="0" dual="-0.0024609008105223"/>
  <constraint name="B55" index="54" status="BS" slack="78920.0525744834" dual="0"/>
  <constraint name="B56" index="55" status="BS" slack="80322.8910536739" dual="0"/>
  <constraint name="B57" index="56" status="BS" slack="35519.8130975284" dual="0"/>
  <constraint name="B58" index="57" status="BS" slack="51694.5100448923" dual="0"/>
  <constraint name="B59" index="58" status="LL" slack="0" dual="-0.0186346910197694"/>
  <constraint name="B60" index="59" status="LL" slack="0" dual="-0.357995636792028"/>
  <constraint name="B61" index="60" status="BS" slack="40346.1455655467" dual="0"/>
  <constraint name="B62" index="61" status="BS" slack="39196.5876638754" dual="0"/>
  <constraint name="B63" index="62" status="LL" slack="0" dual="-0.311"/>
  <constraint name="B64" index="63" status="LL" slack="0" dual="-0.28392131447046"/>
  <constraint name="B65" index="64" status="LL" slack="0" dual="-0.605518621099388"/>
  <constraint name="B66" index="65" status="LL" slack="0" dual="-0.28392131447046"/>
  <constraint name="B67" index="66" status="LL" slack="0" dual="-0.28392131447046"/>
  <constraint name="B68" index="67" status="LL" slack="0" dual="-0.28392131447046"/>
  <constraint name="B69" index="68" status="LL" slack="0" dual="-0.315157928903628"/>
  <constraint name="B70" index="69" status="LL" slack="0" dual="-0.221271572799953"/>
  <constraint name="B71" index="70" status="LL" slack="0" dual="-0.303040554181353"/>
  <constraint name="B72" index="71" status="LL" slack="0" dual="-0.349915405452991"/>
  <constraint name="B73" index="72" status="LL" slack="0" dual="-0.307253635065714"/>
  <constraint name="B74" index="73" status="LL" slack="0" dual="-0.28392131447046"/>
  <constraint name="B75" index="74" status="BS" slack="14672.2644716444" dual="0"/>
  <constraint name="B76" index="75" status="BS" slack="18129.8829830412" dual="0"/>
  <constraint name="B77" index="76" status="BS" slack="5005.60672200779" dual="0"/>
  <constraint name="B78" index="77" status="LL" slack="0" dual="0"/>
  <constraint name="B79" index="78" status="LL" slack="0" dual="0"/>
  <constraint name="B80" index="79" status="BS" slack="7026.70677607936" dual="0"/>
  <constraint name="B81" index="80" status="BS" slack="14675.6444716444" dual="0"/>
  <constraint name="B82" index="81" status="BS" slack="8125.27813924607" dual="0"/>
  <constraint name="B83" index="82" status="BS" slack="2984.52001968466" dual="0"/>
  <constraint name="B84" index="83" status="BS" slack="1758.0499123024" dual="0"/>
  <constraint name="B85" index="84" status="BS" slack="12946.155215946" dual="0"/>
  <constraint name="B86" index="85" status="BS" slack="17190.7210930395" dual="0"/>
  <constraint name="B87" index="86" status="BS" slack="9335.90905622581" dual="0"/>
  <constraint name="B88" index="87" status="BS" slack="12450.4562784921" dual="0"/>
  <constraint name="B89" index="88" status="BS" slack="12450.4662784921" dual="0"/>
  <constraint name="B90" index="89" status="BS" slack="14178.3155341906" dual="0"/>
  <constraint name="B91" index="90" status="BS" slack="14178.3255341906" dual="0"/>
  <constraint name="B92" index="91" status="BS" slack="15906.174789889" dual="0"/>
  <constraint name="B93" index="92" status="BS" slack="14178.3455341906" dual="0"/>
  <constraint name="B94" index="93" status="BS" slack="12450.5162784921" dual="0"/>
  <constraint name="B95" index="94" status="BS" slack="12450.5262784921" dual="0"/>
  <constraint name="B96" index="95" status="BS" slack="12450.5362784921" dual="0"/>
  <constraint name="B97" index="96" status="BS" slack="12450.5462784921" dual="0"/>
  <constraint name="B98" index="97" status="BS" slack="12450.5562784921" dual="0"/>
  <constraint name="B99" index="98" status="LL" slack="0" dual="-0.069"/>
  <constraint name="B100" index="99" status="LL" slack="0" dual="-0.0419213144704604"/>
  <constraint name="B101" index="100" status="LL" slack="0" dual="-0.363518621099388"/>
  <constraint name="B102" index="101" status="LL" slack="0" dual="-0.0419213144704604"/>
  <constraint name="B103" index="102" status="LL" slack="0" dual="-0.0419213144704604"/>
  <constraint name="B104" index="103" status="LL" slack="0" dual="-0.0419213144704604"/>
  <constraint name="B105" index="104" status="LL" slack="0" dual="-0.0731579289036283"/>
  <constraint name="B106" index="105" status="BS" slack="6916.21986204941" dual="0"/>
  <constraint name="B107" index="106" status="LL" slack="0" dual="-0.0610405541813531"/>
  <constraint name="B108" index="107" status="LL" slack="0" dual="-0.107915405452991"/>
  <constraint name="B109" index="108" status="LL" slack="0" dual="-0.0652536350657144"/>
  <constraint name="B110" index="109" status="LL" slack="0" dual="-0.0419213144704604"/>
  <constraint name="B111" index="110" status="LL" slack="0" dual="0"/>
  <constraint name="B112" index="111" status="BS" slack="10010.9076830509" dual="0"/>
  <constraint name="B113" index="112" status="BS" slack="8235.44594056289" dual="0"/>
  <constraint name="B114" index="113" status="BS" slack="9461.91604794515" dual="0"/>
  <constraint name="B115" index="114" status="BS" slack="1729.48925569843" dual="0"/>
  <constraint name="B116" index="115" status="BS" slack="12954.3244177382" dual="0"/>
  <constraint name="B117" index="116" status="BS" slack="2943.43673468732" dual="0"/>
  <constraint name="B118" index="117" status="BS" slack="4718.91847717532" dual="0"/>
  <constraint name="B119" index="118" status="BS" slack="3492.46836979306" dual="0"/>
  <constraint name="B120" index="119" status="BS" slack="6041.3973949445" dual="0"/>
  <constraint name="B121" index="120" status="LL" slack="0" dual="0"/>
  <constraint name="B122" index="121" status="BS" slack="2673.67968805782" dual="0"/>
  <constraint name="B123" index="122" status="BS" slack="7519.48952050405" dual="0"/>
  <constraint name="B124" index="123" status="BS" slack="13776.463837812" dual="0"/>
  <constraint name="B125" index="124" status="BS" slack="12882.187450866" dual="0"/>
  <constraint name="B126" index="125" status="BS" slack="14614.3853481152" dual="0"/>
  <constraint name="B127" index="126" status="BS" slack="8935.42864356606" dual="0"/>
  <constraint name="B128" index="127" status="BS" slack="14614.4053481152" dual="0"/>
  <constraint name="B129" index="128" status="BS" slack="14614.4153481152" dual="0"/>
  <constraint name="B130" index="129" status="BS" slack="14614.4253481152" dual="0"/>
  <constraint name="B131" index="130" status="LL" slack="0" dual="0"/>
  <constraint name="B132" index="131" status="LL" slack="0" dual="0"/>
  <constraint name="B133" index="132" status="LL" slack="0" dual="-0.0270786855295396"/>
  <constraint name="B134" index="133" status="BS" slack="6131.31819945467" dual="0"/>
  <constraint name="B135" index="134" status="BS" slack="5186.82860758576" dual="0"/>
  <constraint name="B136" index="135" status="BS" slack="6438.22620288594" dual="0"/>
  <constraint name="B137" index="136" status="BS" slack="5543.97981593995" dual="0"/>
  <constraint name="B138" index="137" status="BS" slack="17756.7130006653" dual="0"/>
  <constraint name="B139" index="138" status="BS" slack="2025.68162077235" dual="0"/>
  <constraint name="B140" index="139" status="BS" slack="18070.203859512" dual="0"/>
  <constraint name="B141" index="140" status="BS" slack="18070.213859512" dual="0"/>
  <constraint name="B142" index="141" status="BS" slack="18070.223859512" dual="0"/>
  <constraint name="B143" index="142" status="LL" slack="0" dual="-0.0233323205952539"/>
  <constraint name="B144" index="143" status="BS" slack="2518.61662139516" dual="0"/>
  <constraint name="B145" index="144" status="LL" slack="0" dual="-0.0178773434500501"/>
  <constraint name="B146" index="145" status="LL" slack="0" dual="-0.0178773434500501"/>
  <constraint name="B147" index="146" status="LL" slack="0" dual="-0.0178773434500501"/>
  <constraint name="B148" index="147" status="LL" slack="0" dual="-0.0178773434500501"/>
  <constraint name="B149" index="148" status="LL" slack="0" dual="-0.0178773434500501"/>
  <constraint name="B150" index="149" status="LL" slack="0" dual="-0.0178773434500501"/>
  <constraint name="B151" index="150" status="LL" slack="0" dual="-0.402699294442156"/>
  <constraint name="B152" index="151" status="LL" slack="0" dual="-0.16150131447046"/>
  <constraint name="B153" index="152" status="LL" slack="0" dual="-0.16150131447046"/>
  <constraint name="B154" index="153" status="LL" slack="0" dual="-0.16150131447046"/>
  <constraint name="B155" index="154" status="BS" slack="17995.3638954923" dual="0"/>
  <constraint name="B156" index="155" status="BS" slack="15016.1770444937" dual="0"/>
  <constraint name="B157" index="156" status="BS" slack="15910.4734314397" dual="0"/>
  <constraint name="B158" index="157" status="BS" slack="1969.95099101592" dual="0"/>
  <constraint name="B159" index="158" status="LL" slack="0" dual="-0.0819402851841559"/>
  <constraint name="B160" index="159" status="LL" slack="0" dual="-0.221271572799953"/>
  <constraint name="B161" index="160" status="BS" slack="8241.88877981858" dual="0"/>
  <constraint name="B162" index="161" status="BS" slack="9467.38888720084" dual="0"/>
  <constraint name="B163" index="162" status="BS" slack="12893.7389316724" dual="0"/>
  <constraint name="B164" index="163" status="BS" slack="17393.5923102699" dual="0"/>
  <constraint name="B165" index="164" status="BS" slack="15907.884789889" dual="0"/>
  <constraint name="B166" index="165" status="BS" slack="15036.4851620398" dual="0"/>
  <constraint name="B167" index="166" status="BS" slack="9895.72704247837" dual="0"/>
  <constraint name="B168" index="167" status="BS" slack="8669.25693509611" dual="0"/>
  <constraint name="B169" index="168" status="BS" slack="5242.92689062451" dual="0"/>
  <constraint name="B170" index="169" status="LL" slack="0" dual="-0.292118657920511"/>
  <constraint name="B171" index="170" status="LL" slack="0" dual="-0.27424131447046"/>
  <constraint name="B172" index="171" status="LL" slack="0" dual="-0.27424131447046"/>
  <constraint name="B173" index="172" status="LL" slack="0" dual="-0.28392131447046"/>
  <constraint name="B174" index="173" status="BS" slack="896645.951863046" dual="0"/>
 </linearConstraints>
 <variables>
  <variable name="A301" index="0" status="BS" value="230.378567426457" reducedCost="0"/>
  <variable name="A302" index="1" status="BS" value="172.283925569843" reducedCost="0"/>
  <variable name="A303" index="2" status="BS" value="170" reducedCost="0"/>
  <variable name="A304" index="3" status="LL" value="0" reducedCost="2977.03874620683"/>
  <variable name="A305" index="4" status="LL" value="0" reducedCost="3005"/>
  <variable name="A306" index="5" status="LL" value="0" reducedCost="3006"/>
  <variable name="A307" index="6" status="LL" value="0" reducedCost="2774.49262557409"/>
  <variable name="A308" index="7" status="BS" value="76.1408898771467" reducedCost="0"/>
  <variable name="A309" index="8" status="LL" value="0" reducedCost="85.1221877060366"/>
  <variable name="A310" index="9" status="LL" value="0" reducedCost="3.44118619438925"/>
  <variable name="A311" index="10" status="BS" value="165.569528571745" reducedCost="0"/>
  <variable name="A312" index="11" status="LL" value="0" reducedCost="132.389627903785"/>
  <variable name="A313" index="12" status="LL" value="0" reducedCost="33.9131703490492"/>
  <variable name="A314" index="13" status="BS" value="12.7352770107759" reducedCost="0"/>
  <variable name="A315" index="14" status="BS" value="14.3084395959642" reducedCost="0"/>
  <variable name="A316" index="15" status="BS" value="14.4725777971794" reducedCost="0"/>
  <variable name="A317" index="16" status="LL" value="0" reducedCost="163.049804048223"/>
  <variable name="A318" index="17" status="BS" value="16.5633667672724" reducedCost="0"/>
  <variable name="A319" index="18" status="LL" value="0" reducedCost="25.9169335534204"/>
  <variable name="A320" index="19" status="LL" value="0" reducedCost="56.443314404286"/>
  <variable name="A321" index="20" status="BS" value="26.607156291855" reducedCost="0"/>
  <variable name="A322" index="21" status="LL" value="0" reducedCost="30.0694577955663"/>
  <variable name="A323" index="22" status="LL" value="0" reducedCost="39.6408080856627"/>
  <variable name="A324" index="23" status="BS" value="329.176514026769" reducedCost="0"/>
  <variable name="A325" index="24" status="LL" value="0" reducedCost="21.4510852869757"/>
  <variable name="A326" index="25" status="LL" value="0" reducedCost="7.05260667309558"/>
  <variable name="A327" index="26" status="BS" value="390" reducedCost="0"/>
  <variable name="A328" index="27" status="LL" value="0" reducedCost="0.39086855295395"/>
  <variable name="A329" index="28" status="LL" value="0" reducedCost="4.7650962808698"/>
  <variable name="A330" index="29" status="BS" value="66.4170613483466" reducedCost="0"/>
  <variable name="A331" index="30" status="BS" value="263.341211221415" reducedCost="0"/>
  <variable name="A332" index="31" status="BS" value="1333.25850240107" reducedCost="0"/>
  <variable name="A333" index="32" status="LL" value="0" reducedCost="6.56364282271318"/>
  <variable name="A334" index="33" status="LL" value="0" reducedCost="3.08346200334829"/>
  <variable name="A335" index="34" status="BS" value="244.501460023762" reducedCost="0"/>
  <variable name="A336" index="35" status="BS" value="507.113352543073" reducedCost="0"/>
  <variable name="A337" index="36" status="BS" value="220" reducedCost="0"/>
  <variable name="A338" index="37" status="BS" value="475.901154021486" reducedCost="0"/>
  <variable name="A339" index="38" status="LL" value="0" reducedCost="50.7187406312686"/>
  <variable name="A340" index="39" status="BS" value="2374.45577010743" reducedCost="0"/>
  <variable name="A341" index="40" status="BS" value="709.386105907985" reducedCost="0"/>
  <variable name="A342" index="41" status="BS" value="1100" reducedCost="0"/>
  <variable name="A343" index="42" status="LL" value="0" reducedCost="3.31329014091925"/>
  <variable name="A344" index="43" status="BS" value="200" reducedCost="0"/>
  <variable name="A345" index="44" status="BS" value="300" reducedCost="0"/>
  <variable name="A346" index="45" status="BS" value="400" reducedCost="0"/>
  <variable name="A347" index="46" status="LL" value="0" reducedCost="7.77884757443822"/>
  <variable name="A348" index="47" status="BS" value="200" reducedCost="0"/>
  <variable name="A349" index="48" status="BS" value="257.721875988372" reducedCost="0"/>
  <variable name="A350" index="49" status="LL" value="0" reducedCost="0"/>
  <variable name="A351" index="50" status="BS" value="939.106551913076" reducedCost="0"/>
  <variable name="A352" index="51" status="LL" value="0" reducedCost="0"/>
  <variable name="A353" index="52" status="LL" value="0" reducedCost="0"/>
  <variable name="A354" index="53" status="LL" value="0" reducedCost="0"/>
  <variable name="A355" index="54" status="BS" value="5.23000000000016" reducedCost="0"/>
  <variable name="A356" index="55" status="LL" value="0" reducedCost="0"/>
  <variable name="A357" index="56" status="BS" value="307.408198930069" reducedCost="0"/>
  <variable name="A358" index="57" status="BS" value="22.8975709814014" reducedCost="0"/>
  <variable name="A359" index="58" status="LL" value="0" reducedCost="0"/>
  <variable name="A360" index="59" status="LL" value="0" reducedCost="0"/>
  <variable name="A361" index="60" status="BS" value="10371.8283734463" reducedCost="0"/>
  <variable name="A362" index="61" status="BS" value="10371.8383734463" reducedCost="0"/>
  <variable name="A363" index="62" status="BS" value="3460.49135065255" reducedCost="0"/>
  <variable name="A364" index="63" status="BS" value="3460.50135065255" reducedCost="0"/>
  <variable name="A365" index="64" status="BS" value="3460.51135065255" reducedCost="0"/>
  <variable name="A366" index="65" status="BS" value="3460.52135065255" reducedCost="0"/>
  <variable name="A367" index="66" status="BS" value="3460.53135065255" reducedCost="0"/>
  <variable name="A368" index="67" status="LL" value="0" reducedCost="0.0207284272000469"/>
  <variable name="A369" index="68" status="BS" value="6916.22986204941" reducedCost="0"/>
  <variable name="A370" index="69" status="BS" value="6916.23986204941" reducedCost="0"/>
  <variable name="A371" index="70" status="BS" value="8644.08911774784" reducedCost="0"/>
  <variable name="A372" index="71" status="BS" value="10371.9383734463" reducedCost="0"/>
  <variable name="A373" index="72" status="BS" value="3803.6729245457" reducedCost="0"/>
  <variable name="A374" index="73" status="LL" value="0" reducedCost="0.0270786855295396"/>
  <variable name="A375" index="74" status="LL" value="0" reducedCost="0.0709328637062114"/>
  <variable name="A376" index="75" status="LL" value="0" reducedCost="0.0270786855295396"/>
  <variable name="A377" index="76" status="LL" value="0" reducedCost="0.0270786855295396"/>
  <variable name="A378" index="77" status="LL" value="0" reducedCost="0.0270786855295396"/>
  <variable name="A379" index="78" status="LL" value="0" reducedCost="0.0313382238613352"/>
  <variable name="A380" index="79" status="LL" value="0" reducedCost="0.0897284272000469"/>
  <variable name="A381" index="80" status="LL" value="0" reducedCost="0.119351324444852"/>
  <variable name="A382" index="81" status="LL" value="0" reducedCost="0.122921307086803"/>
  <variable name="A383" index="82" status="LL" value="0" reducedCost="0.00374636493428565"/>
  <variable name="A384" index="83" status="LL" value="0" reducedCost="0.0324418885645546"/>
  <variable name="A433" index="84" status="BS" value="17.7009923709089" reducedCost="0"/>
  <variable name="A434" index="85" status="BS" value="17.7010023709089" reducedCost="0"/>
  <variable name="A435" index="86" status="BS" value="17.7010123709089" reducedCost="0"/>
  <variable name="A436" index="87" status="BS" value="17.7010223709089" reducedCost="0"/>
  <variable name="A437" index="88" status="LL" value="0" reducedCost="16.1731729701649"/>
  <variable name="A385" index="89" status="BS" value="3.45384851139685" reducedCost="0"/>
  <variable name="A386" index="90" status="BS" value="3.45383851139685" reducedCost="0"/>
  <variable name="A387" index="91" status="BS" value="3.45382851139685" reducedCost="0"/>
  <variable name="A388" index="92" status="BS" value="3.45381851139685" reducedCost="0"/>
  <variable name="A389" index="93" status="BS" value="3.45380851139686" reducedCost="0"/>
  <variable name="A390" index="94" status="LL" value="0" reducedCost="17.8773434500501"/>
  <variable name="A391" index="95" status="LL" value="0" reducedCost="17.8773434500501"/>
  <variable name="A392" index="96" status="LL" value="0" reducedCost="80.5270851205574"/>
  <variable name="A393" index="97" status="LL" value="0" reducedCost="96.7829569302182"/>
  <variable name="A394" index="98" status="LL" value="0" reducedCost="94.2995595025384"/>
  <variable name="A395" index="99" status="LL" value="0" reducedCost="17.8773434500501"/>
  <variable name="A396" index="100" status="BS" value="3.45379851139686" reducedCost="0"/>
  <variable name="A397" index="101" status="BS" value="15.906464789889" reducedCost="0"/>
  <variable name="A398" index="102" status="BS" value="11.9406656600574" reducedCost="0"/>
  <variable name="A399" index="103" status="BS" value="7.09486582761113" reducedCost="0"/>
  <variable name="A400" index="104" status="BS" value="0.837901510303153" reducedCost="0"/>
  <variable name="A401" index="105" status="BS" value="1.73218789724913" reducedCost="0"/>
  <variable name="A402" index="106" status="LL" value="0" reducedCost="0"/>
  <variable name="A403" index="107" status="BS" value="5.67896670454911" reducedCost="0"/>
  <variable name="A404" index="108" status="LL" value="0" reducedCost="62.6497416705073"/>
  <variable name="A405" index="109" status="LL" value="0" reducedCost="78.9056134801681"/>
  <variable name="A406" index="110" status="LL" value="0" reducedCost="76.4222160524883"/>
  <variable name="A407" index="111" status="BS" value="14.6144353481152" reducedCost="0"/>
  <variable name="A408" index="112" status="BS" value="14.6144453481152" reducedCost="0"/>
  <variable name="A409" index="113" status="BS" value="3.45762851139685" reducedCost="0"/>
  <variable name="A410" index="114" status="LL" value="0" reducedCost="0"/>
  <variable name="A411" index="115" status="BS" value="2.33351091291829" reducedCost="0"/>
  <variable name="A412" index="116" status="BS" value="7.34021763492608" reducedCost="0"/>
  <variable name="A413" index="117" status="BS" value="7.34019763492609" reducedCost="0"/>
  <variable name="A414" index="118" status="BS" value="0.313470858846719" reducedCost="0"/>
  <variable name="A415" index="119" status="BS" value="10.3655455341906" reducedCost="0"/>
  <variable name="A416" index="120" status="LL" value="0" reducedCost="62.6497416705073"/>
  <variable name="A417" index="121" status="LL" value="0" reducedCost="78.9056134801681"/>
  <variable name="A418" index="122" status="LL" value="0" reducedCost="76.4222160524883"/>
  <variable name="A419" index="123" status="BS" value="6.91147702279371" reducedCost="0"/>
  <variable name="A420" index="124" status="BS" value="0.939061890001698" reducedCost="0"/>
  <variable name="A421" index="125" status="LL" value="0" reducedCost="9.67999999999995"/>
  <variable name="A422" index="126" status="LL" value="0" reducedCost="9.68000000000001"/>
  <variable name="A424" index="127" status="LL" value="0" reducedCost="9.68000000000001"/>
  <variable name="A425" index="128" status="LL" value="0" reducedCost="9.68000000000001"/>
  <variable name="A426" index="129" status="LL" value="0" reducedCost="9.68000000000001"/>
  <variable name="A427" index="130" status="LL" value="0" reducedCost="9.68000000000001"/>
  <variable name="A428" index="131" status="LL" value="0" reducedCost="72.3297416705073"/>
  <variable name="A429" index="132" status="LL" value="0" reducedCost="88.5856134801681"/>
  <variable name="A430" index="133" status="LL" value="0" reducedCost="86.1022160524883"/>
  <variable name="A431" index="134" status="LL" value="0" reducedCost="9.68000000000001"/>
  <variable name="A432" index="135" status="LL" value="0" reducedCost="9.68000000000001"/>
  <variable name="A423" index="136" status="BS" value="0.00112" reducedCost="0"/>
  <variable name="A438" index="137" status="BS" value="2708.49313069063" reducedCost="0"/>
  <variable name="A439" index="138" status="LL" value="0" reducedCost="0.303040554181353"/>
  <variable name="A440" index="139" status="LL" value="0" reducedCost="0.349915405452991"/>
  <variable name="A441" index="140" status="LL" value="0" reducedCost="0.307253635065714"/>
  <variable name="A442" index="141" status="LL" value="0" reducedCost="0.28392131447046"/>
 </variables>
</CPLEXSolution>
